(set-info :source |printed by MathSAT|)
(declare-fun |!{$(in_main#0)<N>}| () Int)
(declare-fun |!{$(in_main#0)<N>}.next| () Int)
(declare-fun |!{$(in_main#0)<i>}| () Int)
(declare-fun |!{$(in_main#0)<i>}.next| () Int)
(declare-fun |!{$(in_main#0)<j>}| () Int)
(declare-fun |!{$(in_main#0)<j>}.next| () Int)
(declare-fun |!{$(in_main#0)<x>}| () Int)
(declare-fun |!{$(in_main#0)<x>}.next| () Int)
(declare-fun |!{$(in_main#0)<src.1>}| () (Array Int Int))
(declare-fun |!{$(in_main#0)<src.1>}.next| () (Array Int Int))
(declare-fun |!{$(in_main#0)<dst.2>}| () (Array Int Int))
(declare-fun |!{$(in_main#0)<dst.2>}.next| () (Array Int Int))
(declare-fun |!{$(in_main#0)<$(in___VERIFIER_nondet_int#0)<h#<__VERIFIER_nondet_int.return>>>}| () Int)
(declare-fun |!{$(in_main#0)<$(in___VERIFIER_nondet_int#1)<h#<__VERIFIER_nondet_int.return>>>}| () Int)
(declare-fun !pc () Int)
(declare-fun !pc.next () Int)
(declare-fun |%{$(in_main#0)<x>}#1| () Int)
(declare-fun |%{$(in_main#0)<src.1>}#1| () (Array Int Int))
(declare-fun |%{$(in_main#0)<dst.2>}#1| () (Array Int Int))
(define-fun .def_32 () Int (! !pc :next !pc.next))
(define-fun .def_35 () Bool (! (= .def_32 2) :init true))
(define-fun .def_171 () Bool (= .def_32 26))
(define-fun .def_147 () Bool (= !pc.next 44))
(define-fun .def_174 () Bool (and .def_147 .def_171))
(define-fun .def_10 () Int (! |!{$(in_main#0)<i>}| :next |!{$(in_main#0)<i>}.next|))
(define-fun .def_76 () Bool (= .def_10 |!{$(in_main#0)<i>}.next|))
(define-fun .def_8 () Int (! |!{$(in_main#0)<N>}| :next |!{$(in_main#0)<N>}.next|))
(define-fun .def_74 () Bool (= .def_8 |!{$(in_main#0)<N>}.next|))
(define-fun .def_87 () Bool (and .def_74 .def_76))
(define-fun .def_12 () Int (! |!{$(in_main#0)<j>}| :next |!{$(in_main#0)<j>}.next|))
(define-fun .def_78 () Bool (= .def_12 |!{$(in_main#0)<j>}.next|))
(define-fun .def_88 () Bool (and .def_78 .def_87))
(define-fun .def_14 () Int (! |!{$(in_main#0)<x>}| :next |!{$(in_main#0)<x>}.next|))
(define-fun .def_80 () Bool (= .def_14 |!{$(in_main#0)<x>}.next|))
(define-fun .def_167 () Bool (and .def_80 .def_88))
(define-fun .def_16 () (Array Int Int) (! |!{$(in_main#0)<src.1>}| :next |!{$(in_main#0)<src.1>}.next|))
(define-fun .def_82 () Bool (= .def_16 |!{$(in_main#0)<src.1>}.next|))
(define-fun .def_168 () Bool (and .def_82 .def_167))
(define-fun .def_18 () (Array Int Int) (! |!{$(in_main#0)<dst.2>}| :next |!{$(in_main#0)<dst.2>}.next|))
(define-fun .def_84 () Bool (= .def_18 |!{$(in_main#0)<dst.2>}.next|))
(define-fun .def_169 () Bool (and .def_84 .def_168))
(define-fun .def_154 () Bool (<= .def_8 .def_12))
(define-fun .def_170 () Bool (and .def_154 .def_169))
(define-fun .def_175 () Bool (and .def_170 .def_174))
(define-fun .def_60 () Bool (= !pc.next 26))
(define-fun .def_172 () Bool (and .def_60 .def_171))
(define-fun .def_156 () (Array Int Int) (store .def_16 .def_12 |!{$(in_main#0)<$(in___VERIFIER_nondet_int#1)<h#<__VERIFIER_nondet_int.return>>>}|))
(define-fun .def_163 () Bool (= |!{$(in_main#0)<src.1>}.next| .def_156))
(define-fun .def_158 () Int (* (- 1) |!{$(in_main#0)<j>}.next|))
(define-fun .def_159 () Int (+ .def_12 .def_158))
(define-fun .def_160 () Bool (= .def_159 (- 1)))
(define-fun .def_161 () Bool (and .def_87 .def_160))
(define-fun .def_162 () Bool (and .def_80 .def_161))
(define-fun .def_164 () Bool (and .def_162 .def_163))
(define-fun .def_165 () Bool (and .def_84 .def_164))
(define-fun .def_155 () Bool (not .def_154))
(define-fun .def_166 () Bool (and .def_155 .def_165))
(define-fun .def_173 () Bool (and .def_166 .def_172))
(define-fun .def_176 () Bool (or .def_173 .def_175))
(define-fun .def_146 () Bool (= .def_32 44))
(define-fun .def_110 () Bool (= !pc.next 57))
(define-fun .def_150 () Bool (and .def_110 .def_146))
(define-fun .def_140 () Bool (= |!{$(in_main#0)<x>}.next| 0))
(define-fun .def_141 () Bool (and .def_88 .def_140))
(define-fun .def_142 () Bool (and .def_82 .def_141))
(define-fun .def_143 () Bool (and .def_84 .def_142))
(define-fun .def_123 () Int (select .def_16 .def_10))
(define-fun .def_124 () Bool (= .def_123 0))
(define-fun .def_125 () Bool (not .def_124))
(define-fun .def_121 () Bool (<= .def_8 .def_10))
(define-fun .def_122 () Bool (not .def_121))
(define-fun .def_126 () Bool (and .def_122 .def_125))
(define-fun .def_129 () Bool (not .def_126))
(define-fun .def_144 () Bool (and .def_129 .def_143))
(define-fun .def_151 () Bool (and .def_144 .def_150))
(define-fun .def_148 () Bool (and .def_146 .def_147))
(define-fun .def_127 () (Array Int Int) (store .def_18 .def_10 .def_123))
(define-fun .def_137 () Bool (= |!{$(in_main#0)<dst.2>}.next| .def_127))
(define-fun .def_130 () Int (* (- 1) |!{$(in_main#0)<i>}.next|))
(define-fun .def_131 () Int (+ .def_10 .def_130))
(define-fun .def_132 () Bool (= .def_131 (- 1)))
(define-fun .def_133 () Bool (and .def_74 .def_132))
(define-fun .def_134 () Bool (and .def_78 .def_133))
(define-fun .def_135 () Bool (and .def_80 .def_134))
(define-fun .def_136 () Bool (and .def_82 .def_135))
(define-fun .def_138 () Bool (and .def_136 .def_137))
(define-fun .def_139 () Bool (and .def_126 .def_138))
(define-fun .def_149 () Bool (and .def_139 .def_148))
(define-fun .def_152 () Bool (or .def_149 .def_151))
(define-fun .def_114 () Bool (= !pc.next 0))
(define-fun .def_105 () Bool (= .def_32 57))
(define-fun .def_115 () Bool (and .def_105 .def_114))
(define-fun .def_63 () Bool (<= .def_10 .def_14))
(define-fun .def_98 () Bool (and .def_63 .def_74))
(define-fun .def_99 () Bool (and .def_76 .def_98))
(define-fun .def_100 () Bool (and .def_78 .def_99))
(define-fun .def_101 () Bool (and .def_80 .def_100))
(define-fun .def_102 () Bool (and .def_82 .def_101))
(define-fun .def_103 () Bool (and .def_84 .def_102))
(define-fun .def_116 () Bool (and .def_103 .def_115))
(define-fun .def_111 () Bool (and .def_105 .def_110))
(define-fun .def_90 () Int (* (- 1) |!{$(in_main#0)<x>}.next|))
(define-fun .def_91 () Int (+ .def_14 .def_90))
(define-fun .def_92 () Bool (= .def_91 (- 1)))
(define-fun .def_93 () Bool (and .def_88 .def_92))
(define-fun .def_94 () Bool (and .def_82 .def_93))
(define-fun .def_95 () Bool (and .def_84 .def_94))
(define-fun .def_66 () Int (select .def_16 .def_14))
(define-fun .def_65 () Int (select .def_18 .def_14))
(define-fun .def_67 () Bool (= .def_65 .def_66))
(define-fun .def_68 () Int (ite .def_67 1 0))
(define-fun .def_69 () Bool (= .def_68 0))
(define-fun .def_70 () Bool (not .def_69))
(define-fun .def_96 () Bool (and .def_70 .def_95))
(define-fun .def_64 () Bool (not .def_63))
(define-fun .def_97 () Bool (and .def_64 .def_96))
(define-fun .def_112 () Bool (and .def_97 .def_111))
(define-fun .def_107 () Bool (= !pc.next 77))
(define-fun .def_108 () Bool (and .def_105 .def_107))
(define-fun .def_75 () Bool (and .def_69 .def_74))
(define-fun .def_77 () Bool (and .def_75 .def_76))
(define-fun .def_79 () Bool (and .def_77 .def_78))
(define-fun .def_81 () Bool (and .def_79 .def_80))
(define-fun .def_83 () Bool (and .def_81 .def_82))
(define-fun .def_85 () Bool (and .def_83 .def_84))
(define-fun .def_86 () Bool (and .def_64 .def_85))
(define-fun .def_109 () Bool (and .def_86 .def_108))
(define-fun .def_113 () Bool (or .def_109 .def_112))
(define-fun .def_117 () Bool (or .def_113 .def_116))
(define-fun .def_61 () Bool (and .def_35 .def_60))
(define-fun .def_57 () Bool (= |!{$(in_main#0)<dst.2>}.next| |%{$(in_main#0)<dst.2>}#1|))
(define-fun .def_55 () Bool (= |!{$(in_main#0)<src.1>}.next| |%{$(in_main#0)<src.1>}#1|))
(define-fun .def_53 () Bool (= |!{$(in_main#0)<x>}.next| |%{$(in_main#0)<x>}#1|))
(define-fun .def_51 () Bool (= |!{$(in_main#0)<j>}.next| 0))
(define-fun .def_49 () Bool (= |!{$(in_main#0)<i>}.next| 0))
(define-fun .def_48 () Bool (= |!{$(in_main#0)<N>}.next| |!{$(in_main#0)<$(in___VERIFIER_nondet_int#0)<h#<__VERIFIER_nondet_int.return>>>}|))
(define-fun .def_50 () Bool (and .def_48 .def_49))
(define-fun .def_52 () Bool (and .def_50 .def_51))
(define-fun .def_54 () Bool (and .def_52 .def_53))
(define-fun .def_56 () Bool (and .def_54 .def_55))
(define-fun .def_58 () Bool (and .def_56 .def_57))
(define-fun .def_62 () Bool (and .def_58 .def_61))
(define-fun .def_118 () Bool (or .def_62 .def_117))
(define-fun .def_153 () Bool (or .def_118 .def_152))
(define-fun .def_177 () Bool (! (or .def_153 .def_176) :trans true))
(define-fun .def_119 () Bool (= .def_32 77))
(define-fun .def_178 () Bool (! (not .def_119) :invar-property 0 :invar-property-name ||))
(assert true)
